FILENAME:   /home/mcs001/s132664/testsets/IP/miplib2017/acc-tight4.mps.gz
SETTINGS:   settings_final_nopeek_norelabel_extend_norestarts
TIMELIMIT:  7200
OUTPUTNAME: final_miplib_symretope_if_extended_generating_set_cpx_v802__settings_final_nopeek_norelabel_extend_norestarts__2__
BINNAME:    bin/sbcs.linux.x86_64.gnu.opt.cpx
BASENAME:   acc-tight4.mps.gz
SEED:       2
@01 /home/mcs001/s132664/testsets/IP/miplib2017/acc-tight4.mps.gz ===========
@02 acc-tight4.mps.gz
@03 1686656637
SCIP version 8.0.2 [precision: 8 byte] [memory: block] [mode: optimized] [LP solver: CPLEX 20.1.0.0] [GitHash: 5f0473c]
Copyright (C) 2002-2022 Konrad-Zuse-Zentrum fuer Informationstechnik Berlin (ZIB)

Symretope propagation methods - (c) Jasper van Doornmalen, Christopher Hojny.
[GitHash: 2fd0484]

reading parameter file <../settings/settings_final_nopeek_norelabel_extend_norestarts.set> ...

Changed settings:
limits/time = 7200
limits/restarts = 0
misc/usesymmetry = 1
randomization/randomseedshift = 2
constraints/orbisack/sepafreq = -1
constraints/symresack/sepafreq = -1
propagating/symmetry/addsymresacks = TRUE
propagating/symmetry/detectsubgroups = FALSE
propagating/symmetry/relabelsymretopes = 0
propagating/symmetry/extendgenerators = TRUE
propagating/symmetry/ofsymcomptiming = 0
constraints/symretope/sepafreq = -1
constraints/symretope/peek = FALSE


solving problem ...

original problem has 1620 variables (1620 bin, 0 int, 0 impl, 0 cont) and 3285 constraints
presolving:
(round 1, exhaustive) 0 del vars, 0 del conss, 0 add conss, 0 chg bounds, 0 chg sides, 0 chg coeffs, 3249 upgd conss, 0 impls, 2448 clqs
   (0.1s) sparsify finished: 81/17073 (0.5%) nonzeros canceled - in total 81 canceled nonzeros, 81 changed coefficients, 0 added nonzeros
(round 2, exhaustive) 0 del vars, 0 del conss, 0 add conss, 0 chg bounds, 0 chg sides, 81 chg coeffs, 3249 upgd conss, 0 impls, 2448 clqs
(round 3, exhaustive) 0 del vars, 0 del conss, 0 add conss, 0 chg bounds, 0 chg sides, 81 chg coeffs, 3258 upgd conss, 0 impls, 2457 clqs
(round 4, exhaustive) 25 del vars, 0 del conss, 0 add conss, 0 chg bounds, 0 chg sides, 81 chg coeffs, 3258 upgd conss, 0 impls, 15193 clqs
(round 5, fast)       25 del vars, 27 del conss, 0 add conss, 0 chg bounds, 0 chg sides, 81 chg coeffs, 3258 upgd conss, 0 impls, 15193 clqs
(round 6, exhaustive) 50 del vars, 27 del conss, 0 add conss, 0 chg bounds, 0 chg sides, 81 chg coeffs, 3258 upgd conss, 0 impls, 15145 clqs
(round 7, fast)       50 del vars, 53 del conss, 0 add conss, 0 chg bounds, 0 chg sides, 81 chg coeffs, 3258 upgd conss, 0 impls, 15145 clqs
(round 8, exhaustive) 75 del vars, 53 del conss, 0 add conss, 0 chg bounds, 0 chg sides, 81 chg coeffs, 3258 upgd conss, 0 impls, 15199 clqs
(round 9, fast)       75 del vars, 86 del conss, 0 add conss, 0 chg bounds, 0 chg sides, 81 chg coeffs, 3258 upgd conss, 0 impls, 15199 clqs
   (0.6s) probing: 1000/1620 (61.7%) - 0 fixings, 81 aggregations, 42427 implications, 0 bound changes
   (0.9s) probing cycle finished: starting next cycle
   (0.9s) probing: 51/1539 (3.3%) - 0 fixings, 81 aggregations, 67810 implications, 0 bound changes
   (0.9s) probing aborted: 50/50 successive totally useless probings
(round 10, exhaustive) 81 del vars, 86 del conss, 0 add conss, 0 chg bounds, 0 chg sides, 81 chg coeffs, 3258 upgd conss, 0 impls, 15262 clqs
(round 11, fast)       81 del vars, 99 del conss, 0 add conss, 0 chg bounds, 0 chg sides, 81 chg coeffs, 3258 upgd conss, 0 impls, 15262 clqs
   (0.9s) probing: 56/1539 (3.6%) - 0 fixings, 81 aggregations, 67810 implications, 0 bound changes
   (0.9s) probing aborted: 50/50 successive totally useless probings
   (1.0s) symmetry computation started: requiring (bin +, int +, cont +), (fixed: bin -, int -, cont -)
   (1.0s) symmetry computation finished: 7 generators found (max: 1500, log10 of symmetry group size: 4.6)
(round 12, exhaustive) 81 del vars, 99 del conss, 28 add conss, 0 chg bounds, 0 chg sides, 81 chg coeffs, 3258 upgd conss, 0 impls, 15262 clqs
presolving (13 rounds: 13 fast, 9 medium, 9 exhaustive):
 81 deleted vars, 99 deleted constraints, 28 added constraints, 0 tightened bounds, 0 added holes, 0 changed sides, 81 changed coefficients
 0 implications, 15262 cliques
presolved problem has 1539 variables (1539 bin, 0 int, 0 impl, 0 cont) and 3214 constraints
    396 constraints of type <knapsack>
   2358 constraints of type <setppc>
     27 constraints of type <linear>
     22 constraints of type <orbisack>
      6 constraints of type <symretope>
    405 constraints of type <logicor>
transformed objective value is always integral (scale: 1)
Presolving Time: 1.00

 time | node  | left  |LP iter|LP it/n|mem/heur|mdpt |vars |cons |rows |cuts |sepa|confs|strbr|  dualbound   | primalbound  |  gap   | compl. 
  1.4s|     1 |     0 |  2765 |     - |    39M |   0 |1539 |3267 |3220 |   0 |  0 |  52 |   0 | 0.000000e+00 |      --      |    Inf | unknown
  7.5s|     1 |     0 | 20472 |     - |    41M |   0 |1539 |3467 |3219 |   5 |  1 |  53 |   0 | 0.000000e+00 |      --      |    Inf | unknown
  8.0s|     1 |     0 | 22420 |     - |    42M |   0 |1539 |3467 |3221 |   7 |  2 |  55 |   0 | 0.000000e+00 |      --      |    Inf | unknown
  8.3s|     1 |     0 | 23549 |     - |    43M |   0 |1539 |3477 |3224 |  10 |  3 |  65 |   0 | 0.000000e+00 |      --      |    Inf | unknown
  8.7s|     1 |     0 | 25014 |     - |    43M |   0 |1539 |3482 |3228 |  14 |  4 |  70 |   0 | 0.000000e+00 |      --      |    Inf | unknown
  9.4s|     1 |     0 | 27935 |     - |    44M |   0 |1539 |3483 |3231 |  17 |  5 |  71 |   0 | 0.000000e+00 |      --      |    Inf | unknown
  9.7s|     1 |     0 | 28533 |     - |    44M |   0 |1539 |3491 |3233 |  19 |  6 |  79 |   0 | 0.000000e+00 |      --      |    Inf | unknown
 10.3s|     1 |     0 | 31172 |     - |    45M |   0 |1539 |3492 |3235 |  21 |  7 |  80 |   0 | 0.000000e+00 |      --      |    Inf | unknown
 10.7s|     1 |     0 | 32538 |     - |    45M |   0 |1539 |3494 |3237 |  23 |  8 |  82 |   0 | 0.000000e+00 |      --      |    Inf | unknown
 11.4s|     1 |     0 | 34934 |     - |    45M |   0 |1539 |3497 |3243 |  29 |  9 |  85 |   0 | 0.000000e+00 |      --      |    Inf | unknown
 12.1s|     1 |     0 | 37898 |     - |    46M |   0 |1539 |3500 |3249 |  35 | 10 |  88 |   0 | 0.000000e+00 |      --      |    Inf | unknown
 12.4s|     1 |     0 | 39386 |     - |    46M |   0 |1539 |3503 |3253 |  39 | 11 |  91 |   0 | 0.000000e+00 |      --      |    Inf | unknown
 18.0s|     1 |     2 | 46302 |     - |    47M |   0 |1539 |3517 |3253 |  39 | 11 | 106 |  12 | 0.000000e+00 |      --      |    Inf | unknown
 31.1s|   100 |    31 |122327 | 837.8 |    50M |  19 |1539 |3580 |3215 |  51 |  1 | 171 |  12 | 0.000000e+00 |      --      |    Inf | unknown
 41.0s|   200 |    39 |185647 | 735.0 |    51M |  22 |1539 |3638 |3212 |  56 |  0 | 238 |  12 | 0.000000e+00 |      --      |    Inf | unknown
 time | node  | left  |LP iter|LP it/n|mem/heur|mdpt |vars |cons |rows |cuts |sepa|confs|strbr|  dualbound   | primalbound  |  gap   | compl. 
 52.0s|   300 |    34 |257447 | 729.3 |    52M |  22 |1539 |3781 |3212 |  62 |  1 | 386 |  12 | 0.000000e+00 |      --      |    Inf | unknown
 62.0s|   400 |    38 |326402 | 719.3 |    52M |  22 |1539 |3864 |3212 |  67 |  1 | 476 |  12 | 0.000000e+00 |      --      |    Inf | unknown
 70.1s|   500 |    34 |386442 | 695.5 |    52M |  22 |1539 |3962 |3212 |  67 |  1 | 579 |  12 | 0.000000e+00 |      --      |    Inf | unknown
 81.3s|   600 |    40 |451789 | 688.5 |    53M |  22 |1539 |4074 |3210 |  71 |  1 | 699 |  12 | 0.000000e+00 |      --      |    Inf | unknown
*82.3s|   611 |     0 |458044 | 686.3 |    LP  |  22 |1539 |4085 |3210 |  71 |  0 | 712 |  12 | 0.000000e+00 | 0.000000e+00 |   0.00%| 100.00%

SCIP Status        : problem is solved [optimal solution found]
Solving Time (sec) : 82.34
Solving Nodes      : 611
Primal Bound       : +0.00000000000000e+00 (1 solutions)
Dual Bound         : +0.00000000000000e+00
Gap                : 0.00 %
SCIP Status        : problem is solved [optimal solution found]
Total Time         :      82.36
  solving          :      82.34
  presolving       :       1.00 (included in solving)
  reading          :       0.02
  copying          :       0.35 (34 #copies) (minimal 0.01, maximal 0.01, average 0.01)
Original Problem   :
  Problem name     : acc-tight4
  Variables        : 1620 (1620 binary, 0 integer, 0 implicit integer, 0 continuous)
  Constraints      : 3285 initial, 3285 maximal
  Objective        : minimize, 1 non-zeros (abs.min = 1, abs.max = 1)
Presolved Problem  :
  Problem name     : t_acc-tight4
  Variables        : 1539 (1539 binary, 0 integer, 0 implicit integer, 0 continuous)
  Constraints      : 3214 initial, 4086 maximal
  Objective        : minimize, 1 non-zeros (abs.min = 1, abs.max = 1)
  Nonzeros         : 41508 constraint, 34062 clique table
Presolvers         :   ExecTime  SetupTime  Calls  FixedVars   AggrVars   ChgTypes  ChgBounds   AddHoles    DelCons    AddCons   ChgSides   ChgCoefs
  boundshift       :       0.00       0.00      0          0          0          0          0          0          0          0          0          0
  convertinttobin  :       0.00       0.00      0          0          0          0          0          0          0          0          0          0
  domcol           :       0.01       0.00      7          0          0          0          0          0          0          0          0          0
  dualagg          :       0.00       0.00      0          0          0          0          0          0          0          0          0          0
  dualcomp         :       0.00       0.00      0          0          0          0          0          0          0          0          0          0
  dualinfer        :       0.00       0.00      0          0          0          0          0          0          0          0          0          0
  dualsparsify     :       0.02       0.00      1          0          0          0          0          0          0          0          0          0
  gateextraction   :       0.01       0.00      8          0          0          0          0          0          0          0          0          0
  implics          :       0.00       0.00      9          0          0          0          0          0          0          0          0          0
  inttobinary      :       0.00       0.00      0          0          0          0          0          0          0          0          0          0
  qpkktref         :       0.00       0.00      0          0          0          0          0          0          0          0          0          0
  redvub           :       0.00       0.00      0          0          0          0          0          0          0          0          0          0
  sparsify         :       0.04       0.00      3          0          0          0          0          0          0          0          0         81
  stuffing         :       0.00       0.00      0          0          0          0          0          0          0          0          0          0
  trivial          :       0.00       0.00     13          0          0          0          0          0          0          0          0          0
  tworowbnd        :       0.00       0.00      0          0          0          0          0          0          0          0          0          0
  dualfix          :       0.00       0.00     13          0          0          0          0          0          0          0          0          0
  genvbounds       :       0.00       0.00      0          0          0          0          0          0          0          0          0          0
  probing          :       0.76       0.00      5          0         81          0          0          0          0          0          0          0
  pseudoobj        :       0.00       0.00      0          0          0          0          0          0          0          0          0          0
  symmetry         :       0.03       0.00      1          0          0          0          0          0          0         28          0          0
  vbounds          :       0.00       0.00      2          0          0          0          0          0          0          0          0          0
  knapsack         :       0.06       0.00     28          0          0          0          0          0          0          0          0          0
  setppc           :       0.03       0.00     28          0          0          0          0          0         99          0          0          0
  linear           :       0.02       0.00     22          0          0          0          0          0          0          0          0          0
  orbisack         :       0.00       0.00      1          0          0          0          0          0          0          0          0          0
  symretope        :       0.00       0.00      1          0          0          0          0          0          0          0          0          0
  logicor          :       0.00       0.00     27          0          0          0          0          0          0          0          0          0
  benders          :       0.00       0.00      0          0          0          0          0          0          0          0          0          0
  components       :       0.01       0.00      1          0          0          0          0          0          0          0          0          0
  root node        :          -          -      -          2          -          -          2          -          -          -          -          -
Constraints        :     Number  MaxNumber  #Separate #Propagate    #EnfoLP    #EnfoRelax  #EnfoPS    #Check   #ResProp    Cutoffs    DomReds       Cuts    Applied      Conss   Children
  benderslp        :          0          0          0          0        327          0          0         37          0          0          0          0          0          0          0
  integral         :          0          0          0          0        327          0          0         37          0          0          0          0          0          0        654
  knapsack         :        396+       423         12      10671          0          0          0         32       3915          1       1077          0          0          0          0
  setppc           :       2358+      2372         12      10670          0          0          0          1      87679         24      15484          0          0          0          0
  linear           :         27+       250         12      10646          0          0          0          1       1367          4        487          6          4          0          0
  orbisack         :         22         22          0         87          0          0          0          1       1217          4         88          0          0          0          0
  symretope        :          6          6          0        258          0          0          0          1         22          0          6          0          0          0          0
  logicor          :        405+      1033         12       4865          0          0          0          1       3121          6        819          3          1          0          0
  benders          :          0          0          0          0          0          0          0          2          0          0          0          0          0          0          0
  countsols        :          0          0          0          0          0          0          0          2          0          0          0          0          0          0          0
  components       :          0          0          0          0          0          0          0          0          0          0          0          0          0          0          0
Constraint Timings :  TotalTime  SetupTime   Separate  Propagate     EnfoLP     EnfoPS     EnfoRelax   Check    ResProp    SB-Prop
  benderslp        :       0.00       0.00       0.00       0.00       0.00       0.00       0.00       0.00       0.00       0.00
  integral         :       1.87       0.00       0.00       0.00       1.87       0.00       0.00       0.00       0.00       0.00
  knapsack         :       0.12       0.00       0.02       0.09       0.00       0.00       0.00       0.00       0.00       0.00
  setppc           :       0.33       0.00       0.00       0.30       0.00       0.00       0.00       0.00       0.03       0.00
  linear           :       0.02       0.00       0.00       0.01       0.00       0.00       0.00       0.00       0.00       0.00
  orbisack         :       0.00       0.00       0.00       0.00       0.00       0.00       0.00       0.00       0.00       0.00
  symretope        :       0.00       0.00       0.00       0.00       0.00       0.00       0.00       0.00       0.00       0.00
  logicor          :       0.03       0.00       0.00       0.02       0.00       0.00       0.00       0.00       0.00       0.00
  benders          :       0.00       0.00       0.00       0.00       0.00       0.00       0.00       0.00       0.00       0.00
  countsols        :       0.00       0.00       0.00       0.00       0.00       0.00       0.00       0.00       0.00       0.00
  components       :       0.00       0.00       0.00       0.00       0.00       0.00       0.00       0.00       0.00       0.00
Propagators        : #Propagate   #ResProp    Cutoffs    DomReds
  dualfix          :          2          0          0          0
  genvbounds       :          0          0          0          0
  nlobbt           :          0          0          0          0
  obbt             :          0          0          0          0
  probing          :          0          0          0          0
  pseudoobj        :       3032          0          0          0
  redcost          :        706          0          0          0
  rootredcost      :          1          0          0          0
  symmetry         :          0          0          0          0
  vbounds          :       3186          0          0          0
Propagator Timings :  TotalTime  SetupTime   Presolve  Propagate    ResProp    SB-Prop
  dualfix          :       0.00       0.00       0.00       0.00       0.00       0.00
  genvbounds       :       0.00       0.00       0.00       0.00       0.00       0.00
  nlobbt           :       0.00       0.00       0.00       0.00       0.00       0.00
  obbt             :       0.00       0.00       0.00       0.00       0.00       0.00
  probing          :       0.76       0.00       0.76       0.00       0.00       0.00
  pseudoobj        :       0.01       0.00       0.00       0.01       0.00       0.00
  redcost          :       0.02       0.00       0.00       0.02       0.00       0.00
  rootredcost      :       0.00       0.00       0.00       0.00       0.00       0.00
  symmetry         :       0.03       0.00       0.03       0.00       0.00       0.00
  vbounds          :       0.04       0.00       0.00       0.03       0.00       0.00
Orbital fixing     :
  vars fixed to 0  :          0
  vars fixed to 1  :          0
Conflict Analysis  :       Time      Calls    Success    DomReds  Conflicts   Literals    Reconvs ReconvLits   Dualrays   Nonzeros   LP Iters   (pool size: [10000,10000])
  propagation      :       0.00         37         37          -        131       15.8          6       53.5          -          -          -
  infeasible LP    :       0.33        283        178          -       2186      212.9          7        6.9         38       61.0          0
  bound exceed. LP :       0.00          1          2          -          1        0.0          0        0.0          1        1.0          0
  strong branching :       0.00          0          0          -          0        0.0          0        0.0          -          -          0
  pseudo solution  :       0.00          0          0          -          0        0.0          0        0.0          -          -          -
  applied globally :       0.04          -          -          1        638       44.5          -          -         39          -          -
  applied locally  :          -          -          -          0         36      320.5          -          -          0          -          -
Separators         :   ExecTime  SetupTime      Calls  RootCalls    Cutoffs    DomReds  FoundCuts ViaPoolAdd  DirectAdd    Applied ViaPoolApp  DirectApp      Conss
  cut pool         :       0.00          -         64         21          -          -        127         89          -          -          -          -          -    (maximal pool size:        127)
  aggregation      :       0.03       0.00         23         11          0          0          0          0          0          0          0          0          0
  > cmir           :          -          -          -          -          -          -          -          0          0          0          0          0          -
  > flowcover      :          -          -          -          -          -          -          -          0          0          0          0          0          -
  > knapsackcover  :          -          -          -          -          -          -          -          0          0          0          0          0          -
  cgmip            :       0.00       0.00          0          0          0          0          0          0          0          0          0          0          0
  clique           :       0.18       0.00         11         11          0          0         85         82          0         38         38          0          0
  closecuts        :       0.00       0.00          0          0          0          0          0          0          0          0          0          0          0
  convexproj       :       0.00       0.00          0          0          0          0          0          0          0          0          0          0          0
  disjunctive      :       0.00       0.00          0          0          0          0          0          0          0          0          0          0          0
  eccuts           :       0.00       0.00          0          0          0          0          0          0          0          0          0          0          0
  gauge            :       0.00       0.00          0          0          0          0          0          0          0          0          0          0          0
  gomory           :       1.53       0.00         22         10          0          0         23          0          0          0          0          0          0
  > gomorymi       :          -          -          -          -          -          -          -          0          0          0          0          0          -
  > strongcg       :          -          -          -          -          -          -          -          0          0          0          0          0          -
  impliedbounds    :       0.01       0.00         23         11          0          1          0          0          0          0          0          0          0
  interminor       :       0.00       0.00          0          0          0          0          0          0          0          0          0          0          0
  intobj           :       0.00       0.00          0          0          0          0          0          0          0          0          0          0          0
  mcf              :       0.01       0.00          1          1          0          0          0          0          0          0          0          0          0
  minor            :       0.00       0.00          0          0          0          0          0          0          0          0          0          0          0
  mixing           :       0.00       0.00          0          0          0          0          0          0          0          0          0          0          0
  oddcycle         :       0.00       0.00          0          0          0          0          0          0          0          0          0          0          0
  rapidlearning    :       8.17       0.00         31          1          0       9606          0          0          0          0          0          0        480
  rlt              :       0.00       0.00         10         10          0          0          0          0          0          0          0          0          0
  zerohalf         :       0.62       0.00         23         11          0          0         41          7         22         28          6         22          0
Cutselectors       :   ExecTime  SetupTime      Calls  RootCalls   Selected     Forced   Filtered  RootSelec   RootForc   RootFilt 
  hybrid           :       0.00       0.00         23         11         71          0         39         39          0         39
Pricers            :   ExecTime  SetupTime      Calls       Vars
  problem variables:       0.00          -          0          0
Branching Rules    :   ExecTime  SetupTime   BranchLP  BranchExt   BranchPS    Cutoffs    DomReds       Cuts      Conss   Children
  allfullstrong    :       0.00       0.00          0          0          0          0          0          0          0          0
  cloud            :       0.00       0.00          0          0          0          0          0          0          0          0
  distribution     :       0.00       0.00          0          0          0          0          0          0          0          0
  fullstrong       :       0.00       0.00          0          0          0          0          0          0          0          0
  inference        :       0.00       0.00          0          0          0          0          0          0          0          0
  leastinf         :       0.00       0.00          0          0          0          0          0          0          0          0
  lookahead        :       0.00       0.00          0          0          0          0          0          0          0          0
  mostinf          :       0.00       0.00          0          0          0          0          0          0          0          0
  multaggr         :       0.00       0.00          0          0          0          0          0          0          0          0
  nodereopt        :       0.00       0.00          0          0          0          0          0          0          0          0
  pscost           :       0.00       0.00          0          0          0          0          0          0          0          0
  random           :       0.00       0.00          0          0          0          0          0          0          0          0
  relpscost        :       1.87       0.00        327          0          0          0          0          0          0        654
  vanillafullstrong:       0.00       0.00          0          0          0          0          0          0          0          0
Primal Heuristics  :   ExecTime  SetupTime      Calls      Found       Best
  LP solutions     :       0.00          -          -          0          0
  relax solutions  :       0.00          -          -          0          0
  pseudo solutions :       0.00          -          -          0          0
  strong branching :       0.00          -          -          0          0
  actconsdiving    :       0.00       0.00          0          0          0
  adaptivediving   :       0.00       0.00          0          0          0
  alns             :       0.05       0.00          3          0          0
  bound            :       0.00       0.00          0          0          0
  clique           :       0.01       0.00          1          0          0
  coefdiving       :       0.00       0.00          0          0          0
  completesol      :       0.00       0.00          0          0          0
  conflictdiving   :       1.19       0.00          1          0          0
  crossover        :       0.00       0.00          0          0          0
  dins             :       0.00       0.00          0          0          0
  distributiondivin:       0.03       0.00          0          0          0
  dps              :       0.00       0.00          0          0          0
  dualval          :       0.00       0.00          0          0          0
  farkasdiving     :       0.00       0.00          0          0          0
  feaspump         :       3.56       0.00          1          0          0
  fixandinfer      :       0.00       0.00          0          0          0
  fracdiving       :       0.00       0.00          0          0          0
  gins             :       0.00       0.00          0          0          0
  guideddiving     :       0.00       0.00          0          0          0
  indicator        :       0.00       0.00          0          0          0
  intdiving        :       0.00       0.00          0          0          0
  intshifting      :       0.00       0.00          0          0          0
  linesearchdiving :       0.00       0.00          0          0          0
  localbranching   :       0.00       0.00          0          0          0
  locks            :       0.00       0.00          1          0          0
  lpface           :       0.00       0.00          0          0          0
  mpec             :       0.00       0.00          0          0          0
  multistart       :       0.00       0.00          0          0          0
  mutation         :       0.00       0.00          0          0          0
  nlpdiving        :       0.00       0.00          0          0          0
  objpscostdiving  :       0.00       0.00          0          0          0
  octane           :       0.00       0.00          0          0          0
  ofins            :       0.00       0.00          0          0          0
  oneopt           :       0.00       0.00          0          0          0
  padm             :       0.00       0.00          0          0          0
  proximity        :       0.00       0.00          0          0          0
  pscostdiving     :       0.29       0.00          1          0          0
  randrounding     :       0.07       0.00         40          0          0
  rens             :       2.63       0.00          1          0          0
  reoptsols        :       0.00       0.00          0          0          0
  repair           :       0.00       0.00          0          0          0
  rins             :       0.00       0.00          0          0          0
  rootsoldiving    :       0.00       0.00          0          0          0
  rounding         :       0.09       0.00        232          0          0
  shiftandpropagate:       0.01       0.00          1          0          0
  shifting         :       0.05       0.00         58          0          0
  simplerounding   :       0.00       0.00          0          0          0
  subnlp           :       0.00       0.00          0          0          0
  trivial          :       0.00       0.00          2          0          0
  trivialnegation  :       0.00       0.00          0          0          0
  trustregion      :       0.00       0.00          0          0          0
  trysol           :       0.00       0.00          0          0          0
  twoopt           :       0.00       0.00          0          0          0
  undercover       :       0.00       0.00          0          0          0
  vbounds          :       0.02       0.00          1          0          0
  veclendiving     :       0.00       0.00          0          0          0
  zeroobj          :       0.00       0.00          0          0          0
  zirounding       :       0.03       0.00        327          0          0
  other solutions  :          -          -          -          0          -
LP                 :       Time      Calls Iterations  Iter/call   Iter/sec  Time-0-It Calls-0-It    ItLimit
  primal LP        :       0.17          5          0       0.00       0.00       0.17          5
  dual LP          :      59.66        661     433682     662.11    7269.56       0.04          6
  lex dual LP      :       0.00          0          0       0.00          -
  barrier LP       :       0.00          0          0       0.00          -       0.00          0
  resolve instable :       0.00          0          0       0.00          -
  diving/probing LP:       5.02         13      24363    1874.08    4856.03
  strong branching :       1.79         12       9746     812.17    5436.00          -          -         15
    (at root node) :          -         12       9746     812.17          -
  conflict analysis:       0.00          0          0       0.00          -
B&B Tree           :
  number of runs   :          1
  nodes            :        611 (327 internal, 284 leaves)
  feasible leaves  :          0
  infeas. leaves   :        283
  objective leaves :          1
  nodes (total)    :        611 (327 internal, 284 leaves)
  nodes left       :          0
  max depth        :         22
  max depth (total):         22
  backtracks       :        159 (26.0%)
  early backtracks :          0 (0.0%)
  nodes exc. ref.  :          0 (0.0%)
  delayed cutoffs  :          1
  repropagations   :        209 (2259 domain reductions, 1 cutoffs)
  avg switch length:       4.09
  switching time   :       0.32
Root Node          :
  First LP value   : +0.00000000000000e+00
  First LP Iters   :       2765 (7719.07 Iter/sec)
  First LP Time    :       0.36
  Final Dual Bound : +0.00000000000000e+00
  Final Root Iters :      39386
  Root LP Estimate : +1.22796919620731e-02
Solution           :
  Solutions found  :          1 (1 improvements)
  First Solution   : +0.00000000000000e+00   (in run 1, after 611 nodes, 82.33 seconds, depth 20, found by <relaxation>)
  Gap First Sol.   :       0.00 %
  Gap Last Sol.    :       0.00 %
  Primal Bound     : +0.00000000000000e+00   (in run 1, after 611 nodes, 82.33 seconds, depth 20, found by <relaxation>)
  Dual Bound       : +0.00000000000000e+00
  Gap              :       0.00 %
Integrals          :      Total       Avg%
  primal-dual      :    8232.86      99.99
  primal-ref       :          -          - (not evaluated)
  dual-ref         :          -          - (not evaluated)
written solution information to file <results/final_miplib_symretope_if_extended_generating_set_cpx_v802__settings_final_nopeek_norelabel_extend_norestarts__2__acc-tight4.mps.gz.sol>
@04 1686656720
